CapLotSizing_PM/src/Instancias/TCHSHT/25i6p2m/NBA00.OUT
 CG ITER, OVMR, OVMRUB =           1   64782.8046875   64782.8007812
 CG ITER, OVMR, OVMRUB =           2   64782.8046875   64782.8007812
 CG ITER, OVMR, OVMRUB =           3   60656.0039062   64782.8007812
 CG ITER, OVMR, OVMRUB =           4   53272.3281250   59008.1289062
 CG ITER, OVMR, OVMRUB =           5   51623.5507812   59008.1289062
 CG ITER, OVMR, OVMRUB =           6   51364.6093750   59008.1289062
 CG ITER, OVMR, OVMRUB =           7   51084.0664062   59008.1289062
 CG ITER, OVMR, OVMRUB =           8   50862.4921875   59008.1289062
 CG ITER, OVMR, OVMRUB =           9   50605.4335938   59008.1289062
 CG ITER, OVMR, OVMRUB =          10   50412.1679688   59008.1289062
 CG ITER, OVMR, OVMRUB =          11   50310.8828125   59008.1289062
 CG ITER, OVMR, OVMRUB =          12   50153.0859375   59008.1289062
 CG ITER, OVMR, OVMRUB =          13   50089.9960938   59008.1289062
 CG ITER, OVMR, OVMRUB =          14   50001.2929688   59008.1289062
 CG ITER, OVMR, OVMRUB =          15   49925.3906250   59008.1289062
 CG ITER, OVMR, OVMRUB =          16   49769.9335938   59008.1289062
 CG ITER, OVMR, OVMRUB =          17   49677.5078125   59008.1289062
 CG ITER, OVMR, OVMRUB =          18   49620.3710938   59008.1289062
 CG ITER, OVMR, OVMRUB =          19   49564.9335938   59008.1289062
 CG ITER, OVMR, OVMRUB =          20   49497.3125000   59008.1289062
 CG ITER, OVMR, OVMRUB =          21   49409.3632812   59008.1289062
 CG ITER, OVMR, OVMRUB =          22   49293.0664062   59008.1289062
 CG ITER, OVMR, OVMRUB =          23   49213.7734375   59008.1289062
 CG ITER, OVMR, OVMRUB =          24   49149.7539062   59008.1289062
 CG ITER, OVMR, OVMRUB =          25   49147.0742188   59008.1289062
 CG ITER, OVMR, OVMRUB =          26   49094.9023438   57368.5000000
 CG ITER, OVMR, OVMRUB =          27   49048.2578125   57368.5000000
 CG ITER, OVMR, OVMRUB =          28   49006.8593750   57368.5000000
 CG ITER, OVMR, OVMRUB =          29   48984.5351562   57368.5000000
 CG ITER, OVMR, OVMRUB =          30   48950.7421875   57368.5000000
 CG ITER, OVMR, OVMRUB =          31   48950.7695312   57368.5000000
 CG ITER, OVMR, OVMRUB =          32   48900.4062500   57368.5000000
 CG ITER, OVMR, OVMRUB =          33   48852.7773438   57368.5000000
 CG ITER, OVMR, OVMRUB =          34   48809.4765625   57368.5000000
 CG ITER, OVMR, OVMRUB =          35   48778.9101562   57368.5000000
 CG ITER, OVMR, OVMRUB =          36   48774.5546875   57368.5000000
 CG ITER, OVMR, OVMRUB =          37   48730.9765625   57368.5000000
 CG ITER, OVMR, OVMRUB =          38   48702.3984375   57368.5000000
 CG ITER, OVMR, OVMRUB =          39   48700.7304688   57368.5000000
 CG ITER, OVMR, OVMRUB =          40   48691.6289062   57368.5000000
 CG ITER, OVMR, OVMRUB =          41   48670.6718750   57368.5000000
 CG ITER, OVMR, OVMRUB =          42   48652.4609375   57368.5000000
 CG ITER, OVMR, OVMRUB =          43   48633.8867188   57368.5000000
 CG ITER, OVMR, OVMRUB =          44   48625.0585938   57368.5000000
 CG ITER, OVMR, OVMRUB =          45   48607.7500000   56083.7460938
 CG ITER, OVMR, OVMRUB =          46   48609.3398438   56083.7460938
 CG ITER, OVMR, OVMRUB =          47   48600.9726562   56083.7460938
 CG ITER, OVMR, OVMRUB =          48   48552.4296875   56083.7460938
 CG ITER, OVMR, OVMRUB =          49   48549.8828125   56083.7460938
 CG ITER, OVMR, OVMRUB =          50   48532.2851562   56083.7460938
 CG ITER, OVMR, OVMRUB =          51   48529.6289062   56083.7460938
 CG ITER, OVMR, OVMRUB =          52   48530.5429688   56083.7460938
 CG ITER, OVMR, OVMRUB =          53   48528.5078125   56083.7460938
 CG ITER, OVMR, OVMRUB =          54   48512.3203125   56083.7460938
 CG ITER, OVMR, OVMRUB =          55   48508.6640625   51957.9023438
 CG ITER, OVMR, OVMRUB =          56   48495.8710938   51957.9023438
 CG ITER, OVMR, OVMRUB =          57   48496.2695312   51957.9023438
 CG ITER, OVMR, OVMRUB =          58   48487.2421875   51957.9023438
 CG ITER, OVMR, OVMRUB =          59   48483.7734375   51957.9023438
 CG ITER, OVMR, OVMRUB =          60   48483.4960938   51957.9023438
 CG ITER, OVMR, OVMRUB =          61   48483.7421875   51957.9023438
 CG ITER, OVMR, OVMRUB =          62   48483.8085938   51957.9023438
 CG ITER, OVMR, OVMRUB =          63   48475.7421875   51957.9023438
 CG ITER, OVMR, OVMRUB =          64   48474.8281250   51957.9023438
 CG ITER, OVMR, OVMRUB =          65   48475.2070312   51957.9023438
 CG ITER, OVMR, OVMRUB =          66   48475.1406250   51957.9023438
 CG ITER, OVMR, OVMRUB =          67   48476.2500000   51957.9023438
 CG ITER, OVMR, OVMRUB =          68   48475.3750000   51957.9023438
 CG ITER, OVMR, OVMRUB =          69   48474.7851562   51957.9023438
 CG ITER, OVMR, OVMRUB =          70   48473.0820312   51957.9023438
 CG ITER, OVMR, OVMRUB =          71   48470.4101562   51957.9023438
 CG ITER, OVMR, OVMRUB =          72   48471.4179688   51892.4335938
 CG ITER, OVMR, OVMRUB =          73   48473.2734375   51892.4335938
 CG ITER, OVMR, OVMRUB =          74   48472.5898438   50727.1914062
 CG ITER, OVMR, OVMRUB =          75   48474.4492188   50727.1914062
 CG ITER, OVMR, OVMRUB =          76   48474.0937500   50727.1914062
 CG ITER, OVMR, OVMRUB =          77   48474.0937500   50727.1914062
OVLB =   48474.0937500 OVLUB =   50727.1914062 TIME =      19.7000008
